sing20160213.12
TTAA 63121 48698
99007 29656 09505 00090 28650 04507 92778 22423 05512
85512 18622 01005 70155 09808 24009 50589 04158 09518
40761 14178 07024 30974 29357 10027 25101 39330 13027
20250 51957 10530 15429 67159 07534 10663 79959 10551
88105 83757 09566
77106 09067 428//=
TTCC 63125 48698
70869 74365 26035 50064 74366 24506
88999
77999=
TTDD 6312/ 48698
11924 75164 22805 77362 33747 73166 44662 76163 55603
72966 66556 76563 77485 72368
21212 11946 09523 22921 07510 33901 00503 44880 28010
55849 27519 66791 27509 77753 27531 88696 26036 99668
25029 11630 25528 22601 29027 33564 31029 44523 30013
55512 28010 66501 25006 77495 22010 88485 21507=
